DIMACS_lns/graph-1000-65.col
p edge 1000 1814
e 1 558
e 1 943
e 1 295
e 1 269
e 2 630
e 2 980
e 2 393
e 2 39
e 2 566
e 2 99
e 2 578
e 4 158
e 4 520
e 4 126
e 4 501
e 4 704
e 5 917
e 5 80
e 5 259
e 5 877
e 5 81
e 7 943
e 7 958
e 7 812
e 7 707
e 7 399
e 8 643
e 8 791
e 8 532
e 8 125
e 8 607
e 8 475
e 9 391
e 9 607
e 9 748
e 9 279
e 9 646
e 9 378
e 10 673
e 10 128
e 10 629
e 10 731
e 14 231
e 14 171
e 14 144
e 15 298
e 15 566
e 15 409
e 15 679
e 15 742
e 16 973
e 16 999
e 16 312
e 17 177
e 17 383
e 17 405
e 17 522
e 17 200
e 17 624
e 17 412
e 17 554
e 17 510
e 18 591
e 18 742
e 18 853
e 18 405
e 18 39
e 19 660
e 19 933
e 19 581
e 19 506
e 19 573
e 19 979
e 20 725
e 20 609
e 20 826
e 22 819
e 22 623
e 22 738
e 22 911
e 22 668
e 23 885
e 23 82
e 23 636
e 23 498
e 24 62
e 24 643
e 24 858
e 24 465
e 24 842
e 24 706
e 25 299
e 25 596
e 25 635
e 26 863
e 26 303
e 26 519
e 26 865
e 27 497
e 27 708
e 27 459
e 27 568
e 27 30
e 28 412
e 28 237
e 28 781
e 28 111
e 28 247
e 30 719
e 30 85
e 30 538
e 30 657
e 30 338
e 30 55
e 31 104
e 31 73
e 31 531
e 32 688
e 32 514
e 32 558
e 32 652
e 33 515
e 33 37
e 33 332
e 34 309
e 34 834
e 34 779
e 34 419
e 34 806
e 35 821
e 35 713
e 35 957
e 35 299
e 35 671
e 35 645
e 36 481
e 36 700
e 36 391
e 36 203
e 36 211
e 36 559
e 37 563
e 37 477
e 37 859
e 37 76
e 37 710
e 39 755
e 42 88
e 42 947
e 42 743
e 42 952
e 44 501
e 44 742
e 44 95
e 45 341
e 45 172
e 45 798
e 45 544
e 47 111
e 47 389
e 47 816
e 49 472
e 49 51
e 49 188
e 49 539
e 50 952
e 50 794
e 50 51
e 50 842
e 51 738
e 51 594
e 51 960
e 51 166
e 51 116
e 51 904
e 51 613
e 51 378
e 54 810
e 54 847
e 54 94
e 54 317
e 55 311
e 55 739
e 55 580
e 55 784
e 58 593
e 58 167
e 58 835
e 58 762
e 58 498
e 58 821
e 59 582
e 59 575
e 59 541
e 60 178
e 60 980
e 60 896
e 60 811
e 60 706
e 61 755
e 61 267
e 61 814
e 61 494
e 61 356
e 61 567
e 61 493
e 61 874
e 62 391
e 62 525
e 62 126
e 63 748
e 63 118
e 63 894
e 63 560
e 63 67
e 65 940
e 65 881
e 65 640
e 65 215
e 66 695
e 66 395
e 66 560
e 66 590
e 67 277
e 67 167
e 67 279
e 67 907
e 68 319
e 68 885
e 68 339
e 69 174
e 69 504
e 69 945
e 70 244
e 70 389
e 70 214
e 70 907
e 70 203
e 70 840
e 71 541
e 71 211
e 71 177
e 71 992
e 71 696
e 71 479
e 71 935
e 71 975
e 71 902
e 71 644
e 71 789
e 71 709
e 72 226
e 72 919
e 72 500
e 72 210
e 72 195
e 73 681
e 73 938
e 73 459
e 74 963
e 74 223
e 74 687
e 74 845
e 76 148
e 76 706
e 76 622
e 76 111
e 76 608
e 76 747
e 78 120
e 78 190
e 78 403
e 78 454
e 79 972
e 79 662
e 79 987
e 79 390
e 79 991
e 80 853
e 80 270
e 80 936
e 80 879
e 80 624
e 81 971
e 81 852
e 81 937
e 82 225
e 82 701
e 82 495
e 82 390
e 83 260
e 83 119
e 83 972
e 85 692
e 85 685
e 85 829
e 85 641
e 87 231
e 87 131
e 87 510
e 87 774
e 88 954
e 88 882
e 88 477
e 88 733
e 88 505
e 89 657
e 89 522
e 89 617
e 89 138
e 89 472
e 90 299
e 90 337
e 90 760
e 90 739
e 91 874
e 91 816
e 91 244
e 91 308
e 91 905
e 91 387
e 94 366
e 94 274
e 95 784
e 95 218
e 95 467
e 95 178
e 95 576
e 95 792
e 96 422
e 96 960
e 96 634
e 96 429
e 97 524
e 97 380
e 97 396
e 97 791
e 97 109
e 99 711
e 99 523
e 99 696
e 99 912
e 99 391
e 99 837
e 100 975
e 100 145
e 100 522
e 100 792
e 101 107
e 101 672
e 101 175
e 101 679
e 103 368
e 103 117
e 103 445
e 103 789
e 103 899
e 104 172
e 104 934
e 105 268
e 105 274
e 105 118
e 105 753
e 107 497
e 107 809
e 107 360
e 107 880
e 108 758
e 108 858
e 108 711
e 108 119
e 109 158
e 109 557
e 110 539
e 110 935
e 110 987
e 110 472
e 111 623
e 111 371
e 111 701
e 112 992
e 112 532
e 112 755
e 112 786
e 112 376
e 112 710
e 113 578
e 113 854
e 113 516
e 113 253
e 113 643
e 113 458
e 114 908
e 114 898
e 114 326
e 115 911
e 115 311
e 115 808
e 115 940
e 115 901
e 115 567
e 116 159
e 116 635
e 116 198
e 117 194
e 117 693
e 117 470
e 117 982
e 117 520
e 118 823
e 119 514
e 119 441
e 119 412
e 120 683
e 120 315
e 122 900
e 122 358
e 122 802
e 122 238
e 122 349
e 125 313
e 125 918
e 126 288
e 126 535
e 126 491
e 126 572
e 128 284
e 128 588
e 129 533
e 129 601
e 129 301
e 130 246
e 130 818
e 130 400
e 131 922
e 131 371
e 133 859
e 133 454
e 133 230
e 134 694
e 134 332
e 134 349
e 135 601
e 135 669
e 135 478
e 136 871
e 136 638
e 136 920
e 136 913
e 138 742
e 138 741
e 138 873
e 139 492
e 139 315
e 139 995
e 139 656
e 139 455
e 139 450
e 140 734
e 140 922
e 140 828
e 142 598
e 142 724
e 142 893
e 144 277
e 144 602
e 144 451
e 144 714
e 144 716
e 144 183
e 145 637
e 145 381
e 145 171
e 145 997
e 145 1000
e 145 971
e 147 438
e 147 925
e 147 743
e 147 181
e 147 982
e 147 267
e 148 507
e 148 748
e 148 349
e 148 701
e 148 296
e 151 843
e 151 298
e 151 765
e 151 636
e 154 977
e 154 505
e 154 795
e 154 617
e 154 351
e 154 345
e 154 676
e 158 344
e 158 416
e 159 978
e 159 346
e 159 516
e 160 646
e 160 891
e 160 525
e 160 340
e 161 346
e 161 869
e 161 728
e 161 326
e 161 667
e 161 836
e 161 719
e 161 949
e 162 620
e 162 458
e 162 695
e 162 828
e 165 894
e 165 247
e 165 555
e 165 760
e 165 618
e 166 812
e 166 593
e 166 855
e 166 944
e 167 802
e 167 235
e 167 944
e 168 293
e 168 358
e 168 541
e 168 683
e 169 344
e 169 952
e 169 999
e 170 259
e 170 311
e 170 902
e 170 848
e 170 929
e 170 591
e 171 375
e 171 926
e 171 992
e 171 670
e 172 592
e 172 606
e 172 515
e 173 960
e 173 210
e 173 587
e 173 581
e 174 978
e 174 320
e 174 765
e 174 349
e 174 257
e 174 628
e 174 744
e 175 972
e 175 807
e 175 911
e 177 987
e 178 200
e 178 669
e 181 561
e 181 891
e 181 518
e 181 492
e 181 572
e 181 872
e 183 879
e 183 293
e 183 212
e 184 511
e 184 819
e 184 689
e 185 493
e 185 685
e 185 411
e 185 691
e 185 189
e 185 393
e 188 419
e 188 692
e 188 295
e 188 516
e 189 222
e 189 419
e 189 686
e 189 451
e 189 509
e 189 561
e 189 310
e 190 711
e 190 490
e 190 245
e 190 269
e 190 665
e 190 792
e 190 218
e 191 510
e 191 476
e 191 195
e 191 972
e 191 363
e 192 951
e 192 883
e 192 969
e 193 834
e 193 269
e 193 589
e 193 390
e 193 662
e 194 610
e 194 788
e 194 329
e 195 680
e 195 796
e 195 900
e 197 550
e 197 219
e 197 684
e 197 819
e 197 624
e 197 396
e 197 745
e 197 645
e 198 923
e 198 965
e 198 662
e 198 672
e 198 589
e 199 355
e 199 952
e 199 539
e 199 245
e 199 649
e 200 582
e 200 662
e 203 900
e 203 858
e 204 987
e 204 724
e 204 913
e 204 543
e 206 995
e 206 911
e 206 828
e 207 507
e 207 834
e 207 433
e 207 959
e 209 609
e 209 935
e 209 496
e 210 596
e 210 698
e 210 968
e 210 753
e 211 894
e 211 368
e 211 504
e 211 377
e 212 904
e 212 936
e 212 572
e 213 964
e 213 802
e 213 525
e 213 960
e 213 980
e 213 393
e 213 617
e 213 905
e 214 521
e 214 581
e 214 658
e 214 353
e 214 646
e 215 262
e 215 914
e 216 724
e 216 965
e 216 482
e 217 294
e 217 606
e 217 570
e 217 849
e 217 988
e 218 268
e 218 960
e 218 884
e 218 646
e 219 701
e 219 532
e 219 382
e 219 519
e 222 387
e 222 268
e 223 496
e 223 923
e 223 656
e 225 935
e 225 567
e 225 810
e 226 707
e 226 269
e 227 290
e 227 855
e 227 611
e 228 490
e 228 567
e 228 406
e 230 730
e 230 752
e 230 669
e 230 336
e 230 808
e 231 843
e 231 650
e 231 662
e 231 400
e 232 901
e 232 686
e 232 748
e 234 345
e 234 993
e 234 325
e 234 896
e 235 398
e 235 917
e 235 502
e 235 303
e 235 570
e 236 324
e 236 969
e 236 610
e 236 483
e 236 530
e 237 641
e 237 893
e 237 442
e 237 373
e 238 638
e 238 453
e 238 610
e 238 772
e 238 357
e 238 691
e 241 743
e 241 343
e 241 451
e 241 984
e 242 583
e 242 504
e 242 485
e 244 269
e 244 282
e 244 790
e 244 734
e 244 918
e 244 377
e 244 569
e 245 837
e 245 914
e 246 955
e 246 704
e 247 786
e 249 808
e 249 608
e 249 354
e 249 488
e 249 684
e 252 462
e 252 474
e 252 980
e 252 846
e 253 728
e 253 311
e 253 505
e 253 615
e 253 644
e 255 991
e 255 972
e 255 717
e 255 873
e 257 760
e 257 316
e 257 366
e 259 725
e 259 893
e 260 705
e 260 982
e 262 731
e 262 431
e 262 456
e 263 447
e 263 350
e 263 465
e 263 306
e 265 267
e 265 455
e 265 699
e 265 436
e 265 745
e 267 992
e 267 598
e 267 398
e 267 513
e 267 281
e 268 518
e 269 581
e 269 386
e 269 515
e 270 350
e 270 745
e 270 836
e 270 788
e 270 881
e 270 865
e 274 376
e 274 949
e 274 490
e 274 861
e 275 876
e 275 332
e 275 647
e 277 620
e 277 960
e 277 551
e 278 850
e 278 696
e 278 880
e 278 819
e 278 794
e 279 708
e 279 712
e 279 779
e 279 777
e 281 918
e 281 883
e 281 1000
e 282 963
e 282 591
e 282 746
e 282 646
e 282 941
e 284 317
e 284 782
e 287 712
e 287 551
e 287 960
e 287 581
e 287 480
e 288 698
e 288 725
e 288 502
e 288 878
e 289 879
e 289 830
e 289 655
e 290 474
e 290 658
e 290 571
e 290 905
e 290 639
e 290 704
e 292 670
e 292 317
e 292 980
e 292 956
e 293 417
e 293 794
e 294 529
e 294 901
e 294 731
e 294 975
e 294 295
e 296 406
e 296 796
e 296 946
e 296 498
e 298 373
e 298 718
e 299 569
e 300 456
e 300 327
e 300 797
e 301 803
e 301 511
e 301 728
e 301 818
e 303 973
e 303 700
e 304 507
e 304 733
e 304 993
e 304 818
e 304 337
e 304 838
e 304 876
e 305 493
e 305 359
e 305 494
e 306 543
e 306 704
e 307 962
e 307 432
e 307 552
e 307 734
e 307 711
e 308 870
e 308 778
e 309 933
e 309 371
e 310 428
e 310 569
e 311 774
e 311 859
e 311 815
e 312 654
e 312 530
e 312 475
e 312 698
e 313 772
e 313 666
e 313 411
e 313 689
e 315 619
e 315 899
e 315 949
e 315 321
e 315 472
e 315 636
e 315 895
e 315 914
e 315 474
e 315 554
e 316 647
e 316 677
e 316 860
e 316 623
e 316 943
e 317 602
e 317 658
e 319 693
e 319 755
e 319 694
e 320 914
e 320 551
e 320 672
e 321 945
e 321 958
e 321 937
e 323 641
e 323 848
e 323 494
e 324 403
e 324 411
e 325 925
e 325 652
e 325 914
e 325 339
e 325 917
e 326 922
e 326 422
e 326 774
e 326 849
e 326 502
e 327 596
e 327 983
e 329 733
e 329 657
e 329 929
e 329 563
e 329 552
e 331 463
e 331 541
e 331 337
e 336 409
e 336 718
e 336 973
e 336 377
e 336 414
e 337 834
e 337 518
e 337 846
e 337 787
e 338 447
e 338 676
e 338 560
e 338 714
e 339 343
e 339 762
e 339 992
e 339 692
e 339 344
e 339 394
e 339 843
e 340 854
e 340 437
e 340 615
e 340 650
e 340 562
e 340 668
e 341 660
e 341 551
e 341 631
e 343 629
e 343 623
e 343 622
e 343 918
e 343 662
e 343 688
e 344 983
e 344 893
e 345 980
e 345 367
e 346 500
e 346 758
e 346 438
e 348 592
e 348 646
e 348 398
e 348 507
e 349 720
e 349 375
e 349 496
e 350 945
e 351 930
e 351 366
e 353 800
e 353 874
e 353 958
e 353 445
e 354 428
e 354 748
e 354 763
e 355 996
e 355 741
e 355 552
e 355 438
e 355 795
e 356 445
e 356 480
e 356 562
e 356 809
e 357 798
e 357 1000
e 357 770
e 357 704
e 358 941
e 358 624
e 358 697
e 358 389
e 359 594
e 359 386
e 360 772
e 360 779
e 360 510
e 363 554
e 363 842
e 364 747
e 364 968
e 364 390
e 364 975
e 366 716
e 366 698
e 366 622
e 367 879
e 367 878
e 367 852
e 367 481
e 368 593
e 368 949
e 368 920
e 368 778
e 368 787
e 370 456
e 370 993
e 370 654
e 370 538
e 371 988
e 371 790
e 371 870
e 371 511
e 371 581
e 371 596
e 372 453
e 372 531
e 372 946
e 373 662
e 375 798
e 375 416
e 376 869
e 376 638
e 376 726
e 376 567
e 376 999
e 377 496
e 377 472
e 377 838
e 377 770
e 378 482
e 380 422
e 380 676
e 380 753
e 380 837
e 381 739
e 381 870
e 382 694
e 382 437
e 382 745
e 383 474
e 383 708
e 383 601
e 383 710
e 383 594
e 384 441
e 384 794
e 384 713
e 384 711
e 386 625
e 386 403
e 387 814
e 387 832
e 389 940
e 389 972
e 391 502
e 391 787
e 391 551
e 391 532
e 393 639
e 393 646
e 393 784
e 393 689
e 393 590
e 394 818
e 394 559
e 395 731
e 395 726
e 396 453
e 397 623
e 397 870
e 397 978
e 397 834
e 398 710
e 398 499
e 398 786
e 398 962
e 399 521
e 399 665
e 399 550
e 400 636
e 403 421
e 403 634
e 403 470
e 404 772
e 404 823
e 404 693
e 404 563
e 405 984
e 405 838
e 405 934
e 405 912
e 405 563
e 405 814
e 406 505
e 406 411
e 406 506
e 407 680
e 407 741
e 407 890
e 409 791
e 409 665
e 410 941
e 410 855
e 410 771
e 410 691
e 411 725
e 411 930
e 411 657
e 411 557
e 411 972
e 414 844
e 414 890
e 414 900
e 416 952
e 416 561
e 417 894
e 417 681
e 418 876
e 418 985
e 418 958
e 419 433
e 419 778
e 419 826
e 419 431
e 420 590
e 420 600
e 420 845
e 420 591
e 421 620
e 421 923
e 421 893
e 421 524
e 421 533
e 422 491
e 422 513
e 422 863
e 423 881
e 423 725
e 423 529
e 426 815
e 426 900
e 426 774
e 428 505
e 428 609
e 428 554
e 428 837
e 428 845
e 428 496
e 429 503
e 429 982
e 429 494
e 431 773
e 431 607
e 432 977
e 432 539
e 433 589
e 433 896
e 436 442
e 436 734
e 436 991
e 436 712
e 437 533
e 437 614
e 438 762
e 438 854
e 440 884
e 440 907
e 440 451
e 440 501
e 440 815
e 440 922
e 441 796
e 441 744
e 442 984
e 442 976
e 442 608
e 443 467
e 443 878
e 443 976
e 445 908
e 447 899
e 447 779
e 447 748
e 447 836
e 448 563
e 448 760
e 448 517
e 448 601
e 448 985
e 450 581
e 450 573
e 450 849
e 454 570
e 455 931
e 455 509
e 455 597
e 456 804
e 456 499
e 456 982
e 458 601
e 458 877
e 458 979
e 458 620
e 459 925
e 459 495
e 459 487
e 459 524
e 460 902
e 460 640
e 460 464
e 462 593
e 462 807
e 462 818
e 463 570
e 463 971
e 463 470
e 464 504
e 464 986
e 464 908
e 465 666
e 465 598
e 467 987
e 467 496
e 470 992
e 470 908
e 474 919
e 474 758
e 474 748
e 475 923
e 475 685
e 475 519
e 475 562
e 475 828
e 476 832
e 476 929
e 477 774
e 477 775
e 478 899
e 478 933
e 478 880
e 479 731
e 479 811
e 480 954
e 480 789
e 481 848
e 482 493
e 482 844
e 482 652
e 483 935
e 483 828
e 483 681
e 485 883
e 485 634
e 487 589
e 487 501
e 487 645
e 488 696
e 488 873
e 489 545
e 489 659
e 489 684
e 490 673
e 490 770
e 491 899
e 491 893
e 491 531
e 491 644
e 491 979
e 491 501
e 492 669
e 493 899
e 493 628
e 494 693
e 494 718
e 494 744
e 494 815
e 494 958
e 495 623
e 495 535
e 496 560
e 496 738
e 497 955
e 498 950
e 498 859
e 498 687
e 498 779
e 499 733
e 499 578
e 499 667
e 500 612
e 501 939
e 501 925
e 501 568
e 502 775
e 502 984
e 503 721
e 503 725
e 504 554
e 504 533
e 504 798
e 505 624
e 506 538
e 507 979
e 508 883
e 508 656
e 508 628
e 509 571
e 509 945
e 510 815
e 510 808
e 510 988
e 510 573
e 510 705
e 510 690
e 511 652
e 512 697
e 512 529
e 512 958
e 513 859
e 514 968
e 514 883
e 514 655
e 517 659
e 517 762
e 518 723
e 518 920
e 518 709
e 519 679
e 519 681
e 519 731
e 520 968
e 521 612
e 521 878
e 522 952
e 522 973
e 523 641
e 523 613
e 524 945
e 525 865
e 529 597
e 529 708
e 530 872
e 530 737
e 531 567
e 531 831
e 532 846
e 532 983
e 532 733
e 532 671
e 532 773
e 533 765
e 533 566
e 535 986
e 535 698
e 535 917
e 537 760
e 537 711
e 537 666
e 539 717
e 541 620
e 541 752
e 541 741
e 543 769
e 544 582
e 544 969
e 545 593
e 545 745
e 550 706
e 550 639
e 550 845
e 554 719
e 554 894
e 555 669
e 555 986
e 557 655
e 557 988
e 557 631
e 558 781
e 559 770
e 559 567
e 559 739
e 559 890
e 560 563
e 560 683
e 560 685
e 561 917
e 561 737
e 562 697
e 563 634
e 566 597
e 566 723
e 568 924
e 569 795
e 569 894
e 570 891
e 570 923
e 571 930
e 571 827
e 571 950
e 571 816
e 572 853
e 572 608
e 572 985
e 572 923
e 573 649
e 575 870
e 575 739
e 576 784
e 576 830
e 580 930
e 580 597
e 580 670
e 581 962
e 581 695
e 581 961
e 583 849
e 583 876
e 587 619
e 587 882
e 588 741
e 588 803
e 588 711
e 588 600
e 589 871
e 590 852
e 590 773
e 590 819
e 591 845
e 591 959
e 591 847
e 592 826
e 592 890
e 593 791
e 593 690
e 593 868
e 594 970
e 595 795
e 595 845
e 595 630
e 595 792
e 596 652
e 596 612
e 597 682
e 597 943
e 600 806
e 601 936
e 601 957
e 602 929
e 606 985
e 606 717
e 608 719
e 608 667
e 609 937
e 610 807
e 610 637
e 610 635
e 611 885
e 611 880
e 612 809
e 612 629
e 613 737
e 613 853
e 613 958
e 614 637
e 614 834
e 614 625
e 615 689
e 616 873
e 616 970
e 616 752
e 617 993
e 617 949
e 617 659
e 618 968
e 618 699
e 618 991
e 619 782
e 619 640
e 620 962
e 620 814
e 620 721
e 620 742
e 620 800
e 622 689
e 625 939
e 628 949
e 628 689
e 628 647
e 629 877
e 629 775
e 629 771
e 630 683
e 631 724
e 634 970
e 635 860
e 636 927
e 636 807
e 637 924
e 640 895
e 641 760
e 641 764
e 641 789
e 643 649
e 644 733
e 645 774
e 650 834
e 654 963
e 655 848
e 657 879
e 657 699
e 657 865
e 658 933
e 659 688
e 660 809
e 663 917
e 663 806
e 663 812
e 665 758
e 666 963
e 666 879
e 668 936
e 668 830
e 669 764
e 669 913
e 669 887
e 671 752
e 671 836
e 671 710
e 673 842
e 676 938
e 677 723
e 677 800
e 680 737
e 682 835
e 682 838
e 682 764
e 683 945
e 683 855
e 683 852
e 683 745
e 684 753
e 685 800
e 686 737
e 687 938
e 687 951
e 689 972
e 690 837
e 690 733
e 690 897
e 691 887
e 691 961
e 691 971
e 692 1000
e 695 769
e 696 947
e 698 881
e 698 721
e 698 823
e 699 944
e 700 875
e 700 786
e 700 940
e 701 709
e 704 720
e 705 802
e 706 798
e 707 832
e 708 904
e 709 765
e 710 956
e 711 739
e 711 897
e 713 931
e 713 920
e 714 792
e 714 858
e 716 914
e 716 978
e 717 913
e 718 986
e 719 724
e 719 786
e 720 827
e 720 950
e 721 964
e 723 981
e 724 911
e 725 980
e 726 811
e 730 899
e 730 882
e 731 978
e 733 752
e 734 861
e 734 829
e 737 845
e 739 939
e 742 936
e 742 986
e 743 868
e 743 937
e 743 957
e 744 981
e 745 781
e 745 972
e 745 804
e 746 873
e 746 860
e 747 959
e 753 949
e 755 788
e 758 944
e 758 902
e 760 946
e 762 869
e 762 922
e 763 941
e 763 922
e 763 900
e 764 969
e 769 934
e 769 855
e 771 985
e 772 939
e 772 934
e 774 843
e 774 962
e 777 847
e 777 788
e 778 919
e 778 789
e 779 827
e 782 958
e 782 868
e 784 904
e 784 803
e 786 897
e 788 796
e 788 996
e 789 790
e 790 882
e 790 875
e 791 891
e 791 800
e 791 797
e 792 808
e 792 934
e 794 955
e 794 795
e 794 798
e 796 898
e 796 852
e 797 940
e 798 831
e 798 848
e 798 983
e 802 843
e 803 930
e 804 834
e 806 818
e 806 951
e 808 876
e 808 859
e 810 840
e 811 941
e 811 875
e 812 972
e 814 977
e 816 991
e 818 926
e 818 970
e 819 876
e 821 912
e 826 946
e 829 956
e 829 840
e 830 956
e 831 975
e 832 997
e 834 939
e 834 963
e 835 941
e 837 895
e 843 996
e 844 887
e 845 941
e 846 963
e 849 911
e 849 980
e 850 874
e 850 858
e 852 926
e 852 874
e 853 922
e 853 997
e 859 904
e 860 913
e 861 884
e 863 922
e 868 882
e 868 912
e 868 991
e 871 919
e 872 954
e 872 898
e 876 970
e 880 933
e 881 901
e 887 927
e 891 894
e 894 973
e 896 972
e 898 983
e 899 911
e 900 980
e 904 957
e 904 927
e 911 927
e 914 924
e 917 952
e 919 964
e 923 978
e 931 959
e 939 1000
e 944 993
e 945 963
e 947 981
e 949 972
e 951 964
e 957 968
e 958 993
e 961 995
e 965 987
e 971 976
e 980 981
e 995 996
